NAME : X-n261-k13
COMMENT : "Generated by Uchoa, Pecin, Pessoa, Poggi, Subramanian, and Vidal (2013)"
TYPE : CVRP
DIMENSION : 261
EDGE_WEIGHT_TYPE : EUC_2D
EDGE_WEIGHT_FORMAT : 
CAPACITY : 1081
DISTANCE : 1.79769e+308
SERVICE_TIME : 0
NODE_COORD_SECTION
1 0 0
2 377 105
3 535 93
4 820 625
5 689 745
6 774 283
7 399 810
8 242 139
9 300 948
10 557 255
11 22 828
12 27 768
13 961 829
14 825 225
15 288 996
16 126 160
17 219 243
18 504 918
19 532 806
20 566 734
21 327 943
22 848 66
23 45 889
24 952 169
25 736 63
26 939 925
27 569 517
28 969 917
29 603 637
30 188 762
31 800 102
32 879 687
33 289 83
34 836 360
35 887 699
36 21 962
37 857 715
38 447 519
39 931 500
40 316 483
41 572 230
42 417 554
43 488 340
44 760 763
45 403 224
46 470 796
47 67 194
48 927 576
49 524 679
50 155 89
51 629 678
52 469 465
53 810 467
54 354 298
55 87 548
56 618 236
57 338 855
58 774 799
59 811 201
60 684 462
61 892 995
62 449 985
63 120 176
64 552 983
65 455 433
66 244 763
67 790 650
68 189 400
69 717 607
70 351 60
71 546 941
72 138 585
73 567 342
74 790 315
75 568 9
76 20 172
77 600 355
78 909 984
79 992 956
80 36 62
81 614 755
82 883 36
83 401 520
84 463 924
85 109 540
86 218 461
87 337 584
88 157 686
89 789 99
90 246 760
91 792 669
92 52 48
93 60 712
94 629 450
95 712 438
96 661 974
97 533 49
98 853 566
99 495 195
100 573 191
101 519 673
102 737 157
103 493 383
104 957 695
105 536 532
106 926 788
107 513 86
108 59 246
109 803 472
110 391 39
111 311 531
112 706 871
113 741 723
114 936 7
115 100 581
116 799 359
117 477 410
118 689 805
119 45 244
120 818 770
121 339 47
122 607 57
123 763 168
124 324 924
125 358 40
126 977 409
127 823 138
128 453 911
129 771 182
130 912 18
131 251 585
132 422 585
133 514 160
134 854 59
135 24 75
136 22 64
137 729 52
138 73 223
139 572 821
140 126 236
141 259 824
142 167 213
143 277 169
144 184 250
145 153 833
146 563 253
147 978 112
148 724 23
149 161 329
150 15 579
151 461 782
152 851 737
153 237 951
154 105 942
155 972 950
156 749 340
157 36 228
158 744 110
159 705 528
160 181 44
161 420 81
162 671 370
163 309 69
164 987 831
165 951 322
166 953 17
167 388 269
168 585 943
169 395 150
170 484 870
171 995 462
172 472 391
173 221 661
174 488 756
175 138 121
176 724 451
177 102 334
178 16 23
179 280 363
180 491 164
181 414 545
182 448 33
183 835 445
184 506 839
185 734 57
186 991 663
187 671 263
188 578 546
189 344 527
190 180 806
191 608 856
192 93 625
193 731 998
194 380 871
195 920 900
196 518 179
197 80 406
198 282 281
199 835 214
200 895 580
201 785 78
202 407 979
203 31 260
204 346 961
205 938 233
206 603 917
207 144 637
208 572 723
209 838 477
210 545 568
211 260 584
212 348 33
213 483 309
214 237 419
215 417 484
216 33 323
217 79 619
218 514 471
219 108 359
220 59 792
221 532 185
222 536 745
223 781 371
224 440 901
225 953 180
226 290 771
227 332 323
228 264 881
229 152 663
230 94 101
231 614 160
232 202 225
233 148 85
234 93 799
235 934 466
236 999 195
237 660 791
238 761 946
239 547 966
240 980 316
241 608 512
242 398 136
243 166 24
244 547 880
245 620 872
246 634 985
247 457 149
248 682 442
249 523 885
250 926 617
251 536 487
252 445 327
253 851 455
254 59 176
255 474 325
256 471 123
257 335 879
258 650 321
259 796 593
260 477 184
261 417 342
PICKUP_AND_DELIVERY_SECTION
1 0 0 0 0 0 0
2 0 0 0 0 0 64
3 0 0 0 0 0 73
4 0 0 0 0 0 98
5 0 0 0 0 0 36
6 0 0 0 0 0 76
7 0 0 0 0 0 13
8 0 0 0 0 0 74
9 0 0 0 0 0 43
10 0 0 0 0 0 80
11 0 0 0 0 59 0
12 0 0 0 0 0 95
13 0 0 0 0 0 33
14 0 0 0 0 0 68
15 0 0 0 0 0 35
16 0 0 0 0 0 64
17 0 0 0 0 0 59
18 0 0 0 0 0 22
19 0 0 0 0 0 10
20 0 0 0 0 0 60
21 0 0 0 0 36 0
22 0 0 0 0 0 20
23 0 0 0 0 0 49
24 0 0 0 0 0 67
25 0 0 0 0 0 69
26 0 0 0 0 0 83
27 0 0 0 0 0 99
28 0 0 0 0 0 25
29 0 0 0 0 0 94
30 0 0 0 0 0 34
31 0 0 0 0 96 0
32 0 0 0 0 0 8
33 0 0 0 0 0 49
34 0 0 0 0 0 89
35 0 0 0 0 0 99
36 0 0 0 0 0 21
37 0 0 0 0 0 70
38 0 0 0 0 0 71
39 0 0 0 0 0 45
40 0 0 0 0 0 32
41 0 0 0 0 11 0
42 0 0 0 0 0 48
43 0 0 0 0 0 35
44 0 0 0 0 0 21
45 0 0 0 0 0 90
46 0 0 0 0 0 99
47 0 0 0 0 0 41
48 0 0 0 0 0 55
49 0 0 0 0 0 59
50 0 0 0 0 0 1
51 0 0 0 0 36 0
52 0 0 0 0 0 94
53 0 0 0 0 0 97
54 0 0 0 0 0 44
55 0 0 0 0 0 55
56 0 0 0 0 0 13
57 0 0 0 0 0 35
58 0 0 0 0 0 71
59 0 0 0 0 0 78
60 0 0 0 0 0 57
61 0 0 0 0 96 0
62 0 0 0 0 0 41
63 0 0 0 0 0 35
64 0 0 0 0 0 13
65 0 0 0 0 0 70
66 0 0 0 0 0 17
67 0 0 0 0 0 41
68 0 0 0 0 0 18
69 0 0 0 0 0 6
70 0 0 0 0 0 81
71 0 0 0 0 55 0
72 0 0 0 0 0 80
73 0 0 0 0 0 34
74 0 0 0 0 0 76
75 0 0 0 0 0 58
76 0 0 0 0 0 33
77 0 0 0 0 0 10
78 0 0 0 0 0 64
79 0 0 0 0 0 66
80 0 0 0 0 0 12
81 0 0 0 0 87 0
82 0 0 0 0 0 21
83 0 0 0 0 0 61
84 0 0 0 0 0 54
85 0 0 0 0 0 7
86 0 0 0 0 0 48
87 0 0 0 0 0 47
88 0 0 0 0 0 26
89 0 0 0 0 0 26
90 0 0 0 0 0 9
91 0 0 0 0 35 0
92 0 0 0 0 0 77
93 0 0 0 0 0 57
94 0 0 0 0 0 97
95 0 0 0 0 0 51
96 0 0 0 0 0 10
97 0 0 0 0 0 39
98 0 0 0 0 0 25
99 0 0 0 0 0 66
100 0 0 0 0 0 92
101 0 0 0 0 36 0
102 0 0 0 0 0 35
103 0 0 0 0 0 59
104 0 0 0 0 0 71
105 0 0 0 0 0 53
106 0 0 0 0 0 42
107 0 0 0 0 0 92
108 0 0 0 0 0 36
109 0 0 0 0 0 85
110 0 0 0 0 0 93
111 0 0 0 0 27 0
112 0 0 0 0 0 88
113 0 0 0 0 0 83
114 0 0 0 0 0 62
115 0 0 0 0 0 52
116 0 0 0 0 0 43
117 0 0 0 0 0 55
118 0 0 0 0 0 59
119 0 0 0 0 0 41
120 0 0 0 0 0 59
121 0 0 0 0 83 0
122 0 0 0 0 0 72
123 0 0 0 0 0 37
124 0 0 0 0 0 88
125 0 0 0 0 0 67
126 0 0 0 0 0 30
127 0 0 0 0 0 60
128 0 0 0 0 0 53
129 0 0 0 0 0 98
130 0 0 0 0 0 92
131 0 0 0 0 40 0
132 0 0 0 0 0 46
133 0 0 0 0 0 51
134 0 0 0 0 0 61
135 0 0 0 0 0 72
136 0 0 0 0 0 59
137 0 0 0 0 0 9
138 0 0 0 0 0 23
139 0 0 0 0 0 4
140 0 0 0 0 0 33
141 0 0 0 0 3 0
142 0 0 0 0 0 13
143 0 0 0 0 0 39
144 0 0 0 0 0 36
145 0 0 0 0 0 88
146 0 0 0 0 0 100
147 0 0 0 0 0 75
148 0 0 0 0 0 63
149 0 0 0 0 0 34
150 0 0 0 0 0 6
151 0 0 0 0 53 0
152 0 0 0 0 0 64
153 0 0 0 0 0 47
154 0 0 0 0 0 41
155 0 0 0 0 0 49
156 0 0 0 0 0 95
157 0 0 0 0 0 17
158 0 0 0 0 0 69
159 0 0 0 0 0 79
160 0 0 0 0 0 94
161 0 0 0 0 85 0
162 0 0 0 0 0 97
163 0 0 0 0 0 27
164 0 0 0 0 0 83
165 0 0 0 0 0 41
166 0 0 0 0 0 87
167 0 0 0 0 0 11
168 0 0 0 0 0 95
169 0 0 0 0 0 41
170 0 0 0 0 0 99
171 0 0 0 0 58 0
172 0 0 0 0 0 26
173 0 0 0 0 0 57
174 0 0 0 0 0 52
175 0 0 0 0 0 18
176 0 0 0 0 0 9
177 0 0 0 0 0 43
178 0 0 0 0 0 15
179 0 0 0 0 0 93
180 0 0 0 0 0 18
181 0 0 0 0 32 0
182 0 0 0 0 0 18
183 0 0 0 0 0 97
184 0 0 0 0 0 96
185 0 0 0 0 0 58
186 0 0 0 0 0 93
187 0 0 0 0 0 37
188 0 0 0 0 0 100
189 0 0 0 0 0 97
190 0 0 0 0 0 41
191 0 0 0 0 22 0
192 0 0 0 0 0 87
193 0 0 0 0 0 42
194 0 0 0 0 0 16
195 0 0 0 0 0 94
196 0 0 0 0 0 7
197 0 0 0 0 0 96
198 0 0 0 0 0 41
199 0 0 0 0 0 90
200 0 0 0 0 0 34
201 0 0 0 0 91 0
202 0 0 0 0 0 47
203 0 0 0 0 0 21
204 0 0 0 0 0 19
205 0 0 0 0 0 37
206 0 0 0 0 0 40
207 0 0 0 0 0 79
208 0 0 0 0 0 60
209 0 0 0 0 0 88
210 0 0 0 0 0 84
211 0 0 0 0 75 0
212 0 0 0 0 0 12
213 0 0 0 0 0 42
214 0 0 0 0 0 21
215 0 0 0 0 0 91
216 0 0 0 0 0 6
217 0 0 0 0 0 57
218 0 0 0 0 0 7
219 0 0 0 0 0 66
220 0 0 0 0 0 7
221 0 0 0 0 99 0
222 0 0 0 0 0 75
223 0 0 0 0 0 4
224 0 0 0 0 0 85
225 0 0 0 0 0 10
226 0 0 0 0 0 29
227 0 0 0 0 0 6
228 0 0 0 0 0 20
229 0 0 0 0 0 7
230 0 0 0 0 0 50
231 0 0 0 0 26 0
232 0 0 0 0 0 29
233 0 0 0 0 0 99
234 0 0 0 0 0 45
235 0 0 0 0 0 57
236 0 0 0 0 0 14
237 0 0 0 0 0 33
238 0 0 0 0 0 2
239 0 0 0 0 0 38
240 0 0 0 0 0 43
241 0 0 0 0 64 0
242 0 0 0 0 0 85
243 0 0 0 0 0 84
244 0 0 0 0 0 46
245 0 0 0 0 0 53
246 0 0 0 0 0 45
247 0 0 0 0 0 48
248 0 0 0 0 0 48
249 0 0 0 0 0 85
250 0 0 0 0 0 60
251 0 0 0 0 2 0
252 0 0 0 0 0 17
253 0 0 0 0 0 12
254 0 0 0 0 0 99
255 0 0 0 0 0 43
256 0 0 0 0 0 40
257 0 0 0 0 0 29
258 0 0 0 0 0 13
259 0 0 0 0 0 29
260 0 0 0 0 0 26
261 0 0 0 0 66 0
